minizinc/sudoku_problems2/sudoku_p55.dzn
%
% sudoku_p55.dzn
% See http://www.hakank.org/minizinc/sudoku_gcc.mzn
% 
% This problem is problem 55 from
% Gecode's sudoku.cpp
% http://www.gecode.org/gecode-doc-latest/sudoku_8cpp-source.html
% 
x = array2d(1..n, 1..n, [   
% http://janko.at/Raetsel/Sudoku/502.a.htm
% 55
 16,  _,  _, 11,  _,  _,  1,  2,  _,  _,  _,  _,  7,  3,  _, 12,
  _,  _,  8, 13, 11,  _,  7, 12, 16,  9, 10,  _,  _,  _,  _,  _,
  6,  _,  3,  _,  _,  _, 13,  _,  _,  _,  4, 14,  _,  8, 11,  _,
  4,  _,  _,  _,  3,  8, 16,  _,  2,  1,  _,  _,  _,  _, 10, 13,
  _,  _, 15,  _,  _,  _,  _,  _,  _,  _,  _,  _, 14,  _,  6,  _,
  _, 14,  6,  _,  _,  7,  5, 13, 15, 16,  3,  _, 11,  _,  _,  _,
  _,  7,  _, 16,  _, 15,  9,  1,  6, 14, 11,  _,  4,  5,  8,  3,
  _, 11,  _,  3,  _, 14,  2,  _,  _,  8,  9,  _,  _,  _, 15,  1,
  7,  4,  _,  _,  _,  3, 14,  _,  _,  6,  2,  _,  5,  _,  1,  _,
  9,  8,  5,  2,  _, 12, 11,  7, 13, 15, 14,  _,  3,  _, 16,  _,
  _,  _,  _, 10,  _,  5,  6, 15,  4,  3,  1,  _,  _, 12,  9,  _,
  _, 15,  _,  6,  _,  _,  _,  _,  _,  _,  _,  _,  _, 14,  _,  _,
 12,  1,  _,  _,  _,  _, 15,  4,  _, 11,  5, 16,  _,  _,  _, 14,
  _, 13,  4,  _, 14, 16,  _,  _,  _,  2,  _,  _,  _,  9,  _,  8,
  _,  _,  _,  _,  _, 13,  8,  9,  7,  4,  _,  1, 12, 10,  _,  _,
 11,  _, 10,  7,  _,  _,  _,  _, 14, 13,  _,  _, 15,  _,  _,  4
]);

n = 16;


